(declare-fun v9 () (_ BitVec 10))
(declare-fun v15 () (_ BitVec 6))
(declare-fun a57 () (Array (_ BitVec 10) (_ BitVec 14)))
(assert
(let (($e6 (_ bv15 4)))
(let (($e310 (select a57   v9   )))
(let (($e370 (concat $e6 v15)))
(let (($e371 (bvand $e370 v9)))
(let (($e374 (concat $e6   $e371)))
(let (($e753 (   extract      $e370)))
(let (($e943 (bvand $e374 $e310)))
             (ite        $e753  $e943 $e374)
                                                                                                                                                                                                                                                                                                                                                                                                                                                                                                                                                                                                                                                                                                                                                                                                                                                                                                                                                                                                                                                                                                                                                                                                                                                                                                                                                                                                                                                                                                                                                                                                                                                                                                                                                                                                                                                                                                                                                                                                                                                                                                                                                                                                                                                                                                                                                                                                                                                                                                                                                                                                                                                                                                                                                                                                                                                                                                                                                                                                                                                                                                                                                                                                                                                                                                                                                                                                                                                                                                                                                                                                                                                                                                                                                                                                                                                                                                                                                                                                                                                                                                                                                                                                                                                                                                  )                                                                                                                                                                                             )                                                                                                                                                                                                                                                                                                                                                                                          )  ))                                                           )                                                                                                                                                                                                                                                                                        )     )
